Route #1: 26 7 35 19 8 46 34
Route #2: 52 13 54 59 14 53
Route #3: 11 38 10 58 12
Route #4: 40 9 32 44 3
Route #5: 39 31 55 25 50 18 24 49
Route #6: 63 23 56 41 42 64 22 62
Route #7: 33 1 43 16 51 17
Route #8: 6 2 28 61 21
Route #9: 47 36 60 20 37 15 57 27
Route #10: 30 48 5 29 45 4
Cost 819